certificates/rado_a6_c266_N44.cnf
c Rad2 upper bound instance: x1 + 6*x2 - x3 = 266, interval [1,44]
p cnf 44 336
1 3 44 0
-1 -3 -44 0
2 4 44 0
-2 -4 -44 0
3 5 44 0
-3 -5 -44 0
4 6 44 0
-4 -6 -44 0
5 7 44 0
-5 -7 -44 0
6 8 44 0
-6 -8 -44 0
1 9 43 0
-1 -9 -43 0
7 9 44 0
-7 -9 -44 0
2 10 43 0
-2 -10 -43 0
8 10 44 0
-8 -10 -44 0
3 11 43 0
-3 -11 -43 0
9 11 44 0
-9 -11 -44 0
4 12 43 0
-4 -12 -43 0
10 12 44 0
-10 -12 -44 0
5 13 43 0
-5 -13 -43 0
11 13 44 0
-11 -13 -44 0
6 14 43 0
-6 -14 -43 0
12 14 44 0
-12 -14 -44 0
1 15 42 0
-1 -15 -42 0
7 15 43 0
-7 -15 -43 0
13 15 44 0
-13 -15 -44 0
2 16 42 0
-2 -16 -42 0
8 16 43 0
-8 -16 -43 0
14 16 44 0
-14 -16 -44 0
3 17 42 0
-3 -17 -42 0
9 17 43 0
-9 -17 -43 0
15 17 44 0
-15 -17 -44 0
4 18 42 0
-4 -18 -42 0
10 18 43 0
-10 -18 -43 0
16 18 44 0
-16 -18 -44 0
5 19 42 0
-5 -19 -42 0
11 19 43 0
-11 -19 -43 0
17 19 44 0
-17 -19 -44 0
6 20 42 0
-6 -20 -42 0
12 20 43 0
-12 -20 -43 0
18 20 44 0
-18 -20 -44 0
1 21 41 0
-1 -21 -41 0
7 21 42 0
-7 -21 -42 0
13 21 43 0
-13 -21 -43 0
19 21 44 0
-19 -21 -44 0
2 22 41 0
-2 -22 -41 0
8 22 42 0
-8 -22 -42 0
14 22 43 0
-14 -22 -43 0
20 22 44 0
-20 -22 -44 0
3 23 41 0
-3 -23 -41 0
9 23 42 0
-9 -23 -42 0
15 23 43 0
-15 -23 -43 0
21 23 44 0
-21 -23 -44 0
4 24 41 0
-4 -24 -41 0
10 24 42 0
-10 -24 -42 0
16 24 43 0
-16 -24 -43 0
22 24 44 0
-22 -24 -44 0
5 25 41 0
-5 -25 -41 0
11 25 42 0
-11 -25 -42 0
17 25 43 0
-17 -25 -43 0
23 25 44 0
-23 -25 -44 0
6 26 41 0
-6 -26 -41 0
12 26 42 0
-12 -26 -42 0
18 26 43 0
-18 -26 -43 0
24 26 44 0
-24 -26 -44 0
1 27 40 0
-1 -27 -40 0
7 27 41 0
-7 -27 -41 0
13 27 42 0
-13 -27 -42 0
19 27 43 0
-19 -27 -43 0
25 27 44 0
-25 -27 -44 0
2 28 40 0
-2 -28 -40 0
8 28 41 0
-8 -28 -41 0
14 28 42 0
-14 -28 -42 0
20 28 43 0
-20 -28 -43 0
26 28 44 0
-26 -28 -44 0
3 29 40 0
-3 -29 -40 0
9 29 41 0
-9 -29 -41 0
15 29 42 0
-15 -29 -42 0
21 29 43 0
-21 -29 -43 0
27 29 44 0
-27 -29 -44 0
4 30 40 0
-4 -30 -40 0
10 30 41 0
-10 -30 -41 0
16 30 42 0
-16 -30 -42 0
22 30 43 0
-22 -30 -43 0
28 30 44 0
-28 -30 -44 0
5 31 40 0
-5 -31 -40 0
11 31 41 0
-11 -31 -41 0
17 31 42 0
-17 -31 -42 0
23 31 43 0
-23 -31 -43 0
29 31 44 0
-29 -31 -44 0
6 32 40 0
-6 -32 -40 0
12 32 41 0
-12 -32 -41 0
18 32 42 0
-18 -32 -42 0
24 32 43 0
-24 -32 -43 0
30 32 44 0
-30 -32 -44 0
1 33 39 0
-1 -33 -39 0
7 33 40 0
-7 -33 -40 0
13 33 41 0
-13 -33 -41 0
19 33 42 0
-19 -33 -42 0
25 33 43 0
-25 -33 -43 0
31 33 44 0
-31 -33 -44 0
2 34 39 0
-2 -34 -39 0
8 34 40 0
-8 -34 -40 0
14 34 41 0
-14 -34 -41 0
20 34 42 0
-20 -34 -42 0
26 34 43 0
-26 -34 -43 0
32 34 44 0
-32 -34 -44 0
3 35 39 0
-3 -35 -39 0
9 35 40 0
-9 -35 -40 0
15 35 41 0
-15 -35 -41 0
21 35 42 0
-21 -35 -42 0
27 35 43 0
-27 -35 -43 0
33 35 44 0
-33 -35 -44 0
4 36 39 0
-4 -36 -39 0
10 36 40 0
-10 -36 -40 0
16 36 41 0
-16 -36 -41 0
22 36 42 0
-22 -36 -42 0
28 36 43 0
-28 -36 -43 0
34 36 44 0
-34 -36 -44 0
5 37 39 0
-5 -37 -39 0
11 37 40 0
-11 -37 -40 0
17 37 41 0
-17 -37 -41 0
23 37 42 0
-23 -37 -42 0
29 37 43 0
-29 -37 -43 0
35 37 44 0
-35 -37 -44 0
6 38 39 0
-6 -38 -39 0
12 38 40 0
-12 -38 -40 0
18 38 41 0
-18 -38 -41 0
24 38 42 0
-24 -38 -42 0
30 38 43 0
-30 -38 -43 0
36 38 44 0
-36 -38 -44 0
1 38 39 0
-1 -38 -39 0
7 39 0
-7 -39 0
13 39 40 0
-13 -39 -40 0
19 39 41 0
-19 -39 -41 0
25 39 42 0
-25 -39 -42 0
31 39 43 0
-31 -39 -43 0
37 39 44 0
-37 -39 -44 0
2 38 40 0
-2 -38 -40 0
8 39 40 0
-8 -39 -40 0
14 40 0
-14 -40 0
20 40 41 0
-20 -40 -41 0
26 40 42 0
-26 -40 -42 0
32 40 43 0
-32 -40 -43 0
38 40 44 0
-38 -40 -44 0
3 38 41 0
-3 -38 -41 0
9 39 41 0
-9 -39 -41 0
15 40 41 0
-15 -40 -41 0
21 41 0
-21 -41 0
27 41 42 0
-27 -41 -42 0
33 41 43 0
-33 -41 -43 0
39 41 44 0
-39 -41 -44 0
4 38 42 0
-4 -38 -42 0
10 39 42 0
-10 -39 -42 0
16 40 42 0
-16 -40 -42 0
22 41 42 0
-22 -41 -42 0
28 42 0
-28 -42 0
34 42 43 0
-34 -42 -43 0
40 42 44 0
-40 -42 -44 0
5 38 43 0
-5 -38 -43 0
11 39 43 0
-11 -39 -43 0
17 40 43 0
-17 -40 -43 0
23 41 43 0
-23 -41 -43 0
29 42 43 0
-29 -42 -43 0
35 43 0
-35 -43 0
41 43 44 0
-41 -43 -44 0
6 38 44 0
-6 -38 -44 0
12 39 44 0
-12 -39 -44 0
18 40 44 0
-18 -40 -44 0
24 41 44 0
-24 -41 -44 0
30 42 44 0
-30 -42 -44 0
36 43 44 0
-36 -43 -44 0
42 44 0
-42 -44 0
