certificates/rado_a6_c266_N44.drat
-44 0
42 0
-28 0
26 0
30 0
-12 0
-40 0
-16 0
10 0
14 0
38 0
39 0
18 0
2 0
-43 0
-24 0
-41 0
0
